
Gurobi 11.0.0 (linux64) logging started Wed Apr 10 21:42:17 2024

Set parameter LogFile to value "/lustre1/scratch/348/vsc34888/JointResearch/05.Models/06.Benchmarking/B.Operation_cost/RTS24_ByStages_nc300/openStarNet_RTS24_ByStages_nc300.log"
Set parameter Method to value 2
Set parameter MIPFocus to value 1
Set parameter Presolve to value 2
Set parameter RINS to value 100
Set parameter MIPGap to value 0.01
Set parameter Threads to value 36
Set parameter TimeLimit to value 259200
Set parameter IterationLimit to value 760000000
Gurobi Optimizer version 11.0.0 build v11.0.0rc2 (linux64 - "Rocky Linux 8.8 (Green Obsidian)")

CPU model: Intel(R) Xeon(R) Gold 6240 CPU @ 2.60GHz, instruction set [SSE2|AVX|AVX2|AVX512]
Thread count: 36 physical cores, 36 logical processors, using up to 36 threads

Optimize a model with 116703 rows, 70156 columns and 312677 nonzeros
Model fingerprint: 0x22c00517
Variable types: 70126 continuous, 30 integer (30 binary)
Coefficient statistics:
  Matrix range     [4e-03, 3e+02]
  Objective range  [1e+00, 1e+00]
  Bounds range     [4e-04, 3e+00]
  RHS range        [4e-04, 3e+00]
Presolve removed 62613 rows and 33133 columns
Presolve time: 0.53s
Presolved: 54090 rows, 37023 columns, 190683 nonzeros
Variable types: 36993 continuous, 30 integer (30 binary)
Root relaxation presolved: 54090 rows, 37023 columns, 190683 nonzeros

Root barrier log...

Ordering time: 0.02s

Barrier statistics:
 Dense cols : 30
 AA' NZ     : 4.001e+05
 Factor NZ  : 1.196e+06 (roughly 50 MB of memory)
 Factor Ops : 3.382e+07 (less than 1 second per iteration)
 Threads    : 35

                  Objective                Residual
Iter       Primal          Dual         Primal    Dual     Compl     Time
   0   7.83508050e+05 -1.75124167e+08  6.15e+00 1.44e+02  4.47e+03     1s
   1   1.37489392e+05 -4.99067410e+07  8.58e-01 1.19e-08  6.59e+02     1s
   2   5.02977847e+04 -2.03130523e+07  1.53e-01 1.31e-08  2.00e+02     1s
   3   3.15389486e+04 -1.44041248e+06  2.66e-03 5.75e-09  1.30e+01     1s
   4   1.65570141e+04 -1.82101802e+05  6.30e-06 6.30e-10  1.74e+00     1s
   5   5.82827700e+03 -4.73292893e+04  1.45e-06 1.41e-10  4.67e-01     1s
   6   1.87398796e+03 -1.46972309e+04  3.98e-07 4.08e-11  1.45e-01     1s
   7   8.97125905e+02 -4.70221376e+03  1.25e-07 1.22e-11  4.91e-02     1s
   8   4.18098394e+02 -8.19813637e+02  1.24e-08 1.78e-12  1.09e-02     1s
   9   3.29746582e+02 -2.33657815e+02  5.67e-09 1.02e-12  4.94e-03     1s
  10   2.66029255e+02 -1.67667786e+01  2.79e-09 4.55e-13  2.48e-03     1s
  11   2.35170179e+02  8.73897064e+01  1.57e-09 9.09e-13  1.30e-03     1s
  12   2.19859491e+02  1.46763216e+02  1.02e-09 9.09e-13  6.42e-04     1s
  13   2.05530231e+02  1.61477769e+02  5.18e-10 9.09e-13  3.87e-04     1s
  14   2.00530204e+02  1.68463286e+02  3.42e-10 4.55e-13  2.81e-04     1s
  15   1.98155875e+02  1.78354114e+02  2.56e-10 9.09e-13  1.74e-04     1s
  16   1.95094964e+02  1.83795937e+02  1.48e-10 9.09e-13  9.92e-05     1s
  17   1.93848320e+02  1.86255804e+02  1.59e-10 9.09e-13  6.66e-05     1s
  18   1.92860619e+02  1.89344287e+02  3.84e-10 9.09e-13  3.09e-05     1s
  19   1.92407640e+02  1.89993168e+02  1.74e-10 9.09e-13  2.12e-05     1s
  20   1.92268028e+02  1.90386643e+02  1.81e-10 4.55e-13  1.65e-05     1s
  21   1.91913846e+02  1.90581132e+02  1.61e-10 9.09e-13  1.17e-05     1s
  22   1.91700439e+02  1.90869043e+02  1.04e-10 9.09e-13  7.30e-06     1s
  23   1.91604557e+02  1.90974049e+02  8.22e-11 9.09e-13  5.53e-06     1s
  24   1.91517351e+02  1.91166251e+02  4.74e-11 4.55e-13  3.08e-06     2s
  25   1.91473523e+02  1.91316165e+02  5.28e-11 4.55e-13  1.38e-06     2s
  26   1.91445708e+02  1.91378371e+02  2.88e-11 4.55e-13  5.91e-07     2s
  27   1.91436869e+02  1.91393404e+02  2.45e-10 4.55e-13  3.81e-07     2s
  28   1.91435819e+02  1.91405298e+02  2.46e-10 4.55e-13  2.68e-07     2s
  29   1.91430531e+02  1.91412584e+02  5.83e-10 9.09e-13  1.58e-07     2s
  30   1.91428932e+02  1.91420730e+02  6.90e-10 9.09e-13  7.20e-08     2s
  31   1.91428185e+02  1.91425129e+02  9.78e-10 9.09e-13  2.68e-08     2s
  32   1.91427952e+02  1.91426323e+02  5.78e-10 9.09e-13  1.43e-08     2s
  33   1.91427884e+02  1.91426545e+02  3.85e-10 9.09e-13  1.18e-08     2s
  34   1.91427849e+02  1.91426780e+02  5.83e-10 4.55e-13  9.38e-09     2s
  35   1.91427846e+02  1.91427706e+02  5.11e-10 1.18e-11  1.23e-09     2s
  36   1.91427838e+02  1.91427835e+02  5.33e-09 3.63e-12  2.67e-11     2s
  37   1.91427836e+02  1.91427836e+02  4.80e-09 9.09e-13  5.28e-13     2s

Barrier solved model in 37 iterations and 1.90 seconds (1.68 work units)
Optimal objective 1.91427836e+02


Root relaxation: objective 1.914278e+02, 8409 iterations, 1.64 seconds (1.36 work units)

    Nodes    |    Current Node    |     Objective Bounds      |     Work
 Expl Unexpl |  Obj  Depth IntInf | Incumbent    BestBd   Gap | It/Node Time

     0     0  191.42784    0   21          -  191.42784      -     -    4s
H    0     0                     332.7158353  191.42784  42.5%     -    5s
H    0     0                     265.9205032  194.62232  26.8%     -   10s
     0     0  194.62232    0   17  265.92050  194.62232  26.8%     -   10s
     0     0  194.64056    0   18  265.92050  194.64056  26.8%     -   12s
     0     0  194.64778    0   18  265.92050  194.64778  26.8%     -   12s
     0     0  194.65900    0   18  265.92050  194.65900  26.8%     -   13s
     0     0  194.66336    0   18  265.92050  194.66336  26.8%     -   14s
     0     0  194.66710    0   18  265.92050  194.66710  26.8%     -   14s
     0     0  195.12862    0   21  265.92050  195.12862  26.6%     -   17s
     0     0  195.13813    0   19  265.92050  195.13813  26.6%     -   18s
     0     0  195.14216    0   21  265.92050  195.14216  26.6%     -   18s
     0     0  195.14239    0   20  265.92050  195.14239  26.6%     -   18s
     0     0  195.25742    0   19  265.92050  195.25742  26.6%     -   20s
     0     0  195.26044    0   19  265.92050  195.26044  26.6%     -   21s
     0     0  195.26066    0   19  265.92050  195.26066  26.6%     -   21s
     0     0  195.27635    0   19  265.92050  195.27635  26.6%     -   23s
     0     0  195.27728    0   19  265.92050  195.27728  26.6%     -   23s
     0     0  195.27728    0   19  265.92050  195.27728  26.6%     -   23s
     0     0  195.28147    0   18  265.92050  195.28147  26.6%     -   28s
H    0     0                     251.9249727  195.28147  22.5%     -   30s
H    0     0                     222.6519477  195.28147  12.3%     -  245s
     0     2  195.28147    0   18  222.65195  195.28147  12.3%     -  246s
     3     8  195.68861    2   17  222.65195  195.61677  12.1%  3787  251s
     7    16  195.77808    3   18  222.65195  195.72531  12.1%  3596  255s
    31    58  200.73618    5   16  222.65195  198.02540  11.1%  4718  269s
    61    92  200.94398    6   16  222.65195  200.75716  9.83%  4588  272s
    97   126  201.09153    7   16  222.65195  201.02653  9.71%  3525  545s
H   98   126                     222.4364462  201.02653  9.63%  3489  545s
H  100   126                     222.2318489  201.02653  9.54%  3457  545s
H  104   126                     221.6094603  201.02653  9.29%  3388  545s
H  121   126                     221.5683726  201.02653  9.27%  3169  545s
   169   194  203.20252    9   14  221.56837  201.02653  9.27%  2786  552s
   205   235  204.39051    9   14  221.56837  201.02653  9.27%  2628  556s
   252   274  216.21922   10   13  221.56837  201.02653  9.27%  2437  560s
   299   306  209.67578   10   13  221.56837  201.02653  9.27%  2340  729s
H  303   306                     221.5581814  201.02653  9.27%  2347  729s
H  306   306                     221.3920904  201.02653  9.20%  2342  729s
H  322   306                     221.3655154  201.02653  9.19%  2321  729s
H  333   306                     221.3219911  201.02653  9.17%  2289  729s
   351   328  213.10789   11   12  221.32199  201.02653  9.17%  2216  733s
   415   354     cutoff   12       221.32199  201.02653  9.17%  2130  736s
   499   382     cutoff   13       221.32199  201.09153  9.14%  2001  995s
   690   449     cutoff   10       221.32199  201.09153  9.14%  1822 1003s
   812   465     cutoff   10       221.32199  201.09153  9.14%  1711 1008s
   938   479     cutoff    9       221.32199  201.09153  9.14%  1649 1014s
  1064   476     cutoff   11       221.32199  201.09153  9.14%  1600 1020s
  1200   483  209.31495   11   12  221.32199  201.09153  9.14%  1551 1260s
  1281   531  211.83486   12   11  221.32199  201.09153  9.14%  1529 1266s
  1443   542  216.20904   13   10  221.32199  201.09153  9.14%  1492 1383s
  1500   563     cutoff   13       221.32199  201.09153  9.14%  1487 1661s
  1578   631     cutoff   15       221.32199  202.23520  8.62%  1468 1668s
  1789   627     cutoff   10       221.32199  202.23520  8.62%  1438 1675s
  2017   643  218.77457   11   12  221.32199  202.23520  8.62%  1413 1683s
  2245   661     cutoff   14       221.32199  203.10087  8.23%  1399 1690s
  2529   700  216.46467   14    9  221.32199  203.10573  8.23%  1354 1697s
  2768   723  219.90311   11   11  221.32199  203.96598  7.84%  1334 1704s
  3019   758  211.20610   10   11  221.32199  203.96598  7.84%  1317 1712s
  3283   755     cutoff   13       221.32199  203.96598  7.84%  1302 1719s
  3563   786     cutoff   13       221.32199  205.74546  7.04%  1286 1727s
  3823   823     cutoff   13       221.32199  209.09544  5.52%  1284 1734s
  4166   825     cutoff   14       221.32199  211.48364  4.45%  1253 1742s
  4551   829  216.95566   12   11  221.32199  213.30490  3.62%  1218 1751s
  4961   847  219.12636   12   10  221.32199  213.59655  3.49%  1182 1759s
  5364   882     cutoff   12       221.32199  213.67499  3.46%  1156 1766s
  5792   898  221.09544   12    9  221.32199  213.86145  3.37%  1129 2004s
  6167   953     cutoff   16       221.32199  214.92765  2.89%  1106 2015s
  6740   940  220.43590   17    6  221.32199  215.50435  2.63%  1072 2026s
  7385   949     cutoff   17       221.32199  215.52301  2.62%  1034 2211s
  7978   980     cutoff   14       221.32199  215.98209  2.41%  1007 2363s
  8685   974  219.48517   13    9  221.32199  216.41045  2.22%   979 2583s
  9410   940     cutoff   18       221.32199  216.92213  1.99%   958 2601s
 10493   887  220.69353   17    5  221.32199  217.45988  1.75%   923 2756s
 11178   787  221.25956   15    6  221.32199  217.57316  1.69%   903 2955s
 12234   318     cutoff   13       221.32199  218.14715  1.43%   876 2975s

Cutting planes:
  Learned: 18
  Gomory: 1
  Implied bound: 177
  MIR: 1762
  Relax-and-lift: 135

Explored 13734 nodes (11585803 simplex iterations) in 2976.04 seconds (4067.45 work units)
Thread count was 36 (of 36 available processors)

Solution count 10: 221.322 221.366 221.392 ... 251.925

Optimal solution found (tolerance 1.00e-02)
Best objective 2.213219911192e+02, best bound 2.192034340148e+02, gap 0.9572%

Gurobi 11.0.0 (linux64) logging started Wed Apr 10 22:32:36 2024

Set parameter LogFile to value "/lustre1/scratch/348/vsc34888/JointResearch/05.Models/06.Benchmarking/B.Operation_cost/RTS24_ByStages_nc300/openStarNet_RTS24_ByStages_nc300.log"
Set parameter Method to value 2
Set parameter MIPFocus to value 1
Set parameter Presolve to value 2
Set parameter RINS to value 100
Set parameter MIPGap to value 0.01
Set parameter Threads to value 36
Set parameter TimeLimit to value 259200
Set parameter IterationLimit to value 760000000
Gurobi Optimizer version 11.0.0 build v11.0.0rc2 (linux64 - "Rocky Linux 8.8 (Green Obsidian)")

CPU model: Intel(R) Xeon(R) Gold 6240 CPU @ 2.60GHz, instruction set [SSE2|AVX|AVX2|AVX512]
Thread count: 36 physical cores, 36 logical processors, using up to 36 threads

Optimize a model with 116703 rows, 70126 columns and 276647 nonzeros
Model fingerprint: 0x641e80b6
Coefficient statistics:
  Matrix range     [4e-03, 3e+02]
  Objective range  [1e+00, 1e+00]
  Bounds range     [4e-04, 3e+00]
  RHS range        [4e-04, 4e+01]
Presolve removed 100113 rows and 41233 columns
Presolve time: 0.13s
Presolved: 16590 rows, 29193 columns, 72183 nonzeros

Ordering time: 0.00s

Barrier statistics:
 AA' NZ     : 4.051e+04
 Factor NZ  : 1.355e+05 (roughly 14 MB of memory)
 Factor Ops : 1.814e+06 (less than 1 second per iteration)
 Threads    : 36

                  Objective                Residual
Iter       Primal          Dual         Primal    Dual     Compl     Time
   0   5.45682231e+06 -1.51159461e+08  8.08e+01 1.54e+02  3.46e+04     0s
   1   3.17505190e+05 -8.26050277e+07  4.10e+00 3.22e-12  3.17e+03     0s
   2   8.23035564e+04 -1.47269380e+07  7.29e-01 7.43e-12  4.60e+02     0s
   3   4.00786614e+04 -2.36260439e+06  3.23e-02 2.53e-12  5.40e+01     0s
   4   2.91069803e+04 -4.95446483e+05  1.54e-03 2.01e-12  1.12e+01     0s
   5   1.68358182e+04 -1.05697112e+05  4.93e-05 1.38e-12  2.62e+00     0s
   6   6.64116496e+03 -3.01683426e+04  1.21e-05 5.88e-13  7.86e-01     0s
   7   2.16589049e+03 -1.89734580e+04  3.23e-06 4.74e-13  4.51e-01     0s
   8   1.07842337e+03 -8.18454977e+03  9.94e-07 4.55e-13  1.98e-01     0s
   9   4.56028950e+02 -2.42682322e+03  6.21e-08 4.55e-13  6.15e-02     0s
  10   3.84885219e+02 -7.01672660e+02  3.15e-08 4.55e-13  2.32e-02     0s
  11   3.12460982e+02 -1.60152887e+02  1.23e-08 4.55e-13  1.01e-02     0s
  12   2.57682404e+02  1.51926988e+02  3.46e-09 4.55e-13  2.26e-03     0s
  13   2.36202440e+02  2.04377363e+02  1.32e-09 4.55e-13  6.79e-04     0s
  14   2.28026849e+02  2.13233250e+02  5.87e-10 9.09e-13  3.16e-04     0s
  15   2.24743267e+02  2.18574330e+02  2.93e-10 4.55e-13  1.32e-04     0s
  16   2.22552617e+02  2.20389320e+02  9.91e-11 4.55e-13  4.62e-05     0s
  17   2.21663718e+02  2.21089662e+02  2.48e-10 9.09e-13  1.23e-05     0s
  18   2.21374577e+02  2.21298605e+02  4.43e-10 9.09e-13  1.62e-06     0s
  19   2.21340977e+02  2.21316204e+02  7.62e-10 6.82e-13  5.29e-07     0s
  20   2.21323307e+02  2.21321611e+02  8.31e-10 4.55e-13  3.62e-08     0s
  21   2.21322001e+02  2.21321927e+02  1.95e-09 4.55e-13  1.58e-09     0s
  22   2.21321991e+02  2.21321991e+02  6.69e-09 4.55e-13  2.44e-12     0s
  23   2.21321991e+02  2.21321991e+02  3.61e-09 4.55e-13  2.44e-15     0s

Barrier solved model in 23 iterations and 0.34 seconds (0.33 work units)
Optimal objective 2.21321991e+02

Crossover log...

    3153 DPushes remaining with DInf 0.0000000e+00                 0s
       0 DPushes remaining with DInf 0.0000000e+00                 0s

    1225 PPushes remaining with PInf 0.0000000e+00                 0s
       0 PPushes remaining with PInf 0.0000000e+00                 0s

  Push phase complete: Pinf 0.0000000e+00, Dinf 9.7191482e-13      0s

Iteration    Objective       Primal Inf.    Dual Inf.      Time
    1251    2.2132199e+02   0.000000e+00   0.000000e+00      0s

Use crossover to convert LP symmetric solution to basic solution...
Crossover log...

     615 PPushes remaining with PInf 0.0000000e+00                 0s
       0 PPushes remaining with PInf 0.0000000e+00                 0s

  Push phase complete: Pinf 0.0000000e+00, Dinf 4.4468468e-13      0s

Iteration    Objective       Primal Inf.    Dual Inf.      Time
    1869    2.2132199e+02   0.000000e+00   0.000000e+00      1s

Solved in 1869 iterations and 0.50 seconds (0.43 work units)
Optimal objective  2.213219911e+02
